(declare-const X String)
; search2\.ad\.shopnav\.com\x2F9899\x2Fsearch\x2Fresults\.php.*Logger.*Subject\x3a\s+Host\x3AHost\x3A
(assert (not (str.in_re X (re.++ (str.to_re "search2.ad.shopnav.com/9899/search/results.php") (re.* re.allchar) (str.to_re "Logger") (re.* re.allchar) (str.to_re "Subject:") (re.+ (re.union (str.to_re " ") (str.to_re "\u{9}") (str.to_re "\u{a}") (str.to_re "\u{c}") (str.to_re "\u{d}"))) (str.to_re "Host:Host:\u{a}")))))
; SpyAgent\d+sErver\s+User-Agent\x3A
(assert (str.in_re X (re.++ (str.to_re "SpyAgent") (re.+ (re.range "0" "9")) (str.to_re "sErver") (re.+ (re.union (str.to_re " ") (str.to_re "\u{9}") (str.to_re "\u{a}") (str.to_re "\u{c}") (str.to_re "\u{d}"))) (str.to_re "User-Agent:\u{a}"))))
(check-sat)
